NAME Original_LP
ROWS
 N  OBJ
 G  Constraint_0
 G  Constraint_1
 G  Constraint_2
 G  Constraint_3
 G  Constraint_4
 G  Constraint_5
 G  Constraint_6
 G  Constraint_7
 G  Constraint_8
 G  Constraint_9
COLUMNS
    x_0       OBJ       7.7166117818201787e+00
    x_0       Constraint_0  58
    x_0       Constraint_1  19
    x_0       Constraint_2  33
    x_0       Constraint_3  40
    x_0       Constraint_4  33
    x_0       Constraint_5  20
    x_0       Constraint_6  17
    x_0       Constraint_7  88
    x_0       Constraint_8  55
    x_0       Constraint_9  90
    x_1       OBJ       3.6814785448969332e+00
    x_1       Constraint_0  69
    x_1       Constraint_1  21
    x_1       Constraint_2  96
    x_1       Constraint_3  21
    x_1       Constraint_4  38
    x_1       Constraint_5  70
    x_1       Constraint_6  56
    x_1       Constraint_7  96
    x_1       Constraint_8  59
    x_1       Constraint_9  31
    x_2       OBJ       3.6342532252250095e+00
    x_2       Constraint_0  60
    x_2       Constraint_1  36
    x_2       Constraint_2  82
    x_2       Constraint_3  19
    x_2       Constraint_4  70
    x_2       Constraint_5  50
    x_2       Constraint_6  14
    x_2       Constraint_7  2
    x_2       Constraint_8  38
    x_2       Constraint_9  48
    x_3       OBJ       7.1858062635437792e+00
    x_3       Constraint_0  57
    x_3       Constraint_1  40
    x_3       Constraint_2  32
    x_3       Constraint_3  99
    x_3       Constraint_4  60
    x_3       Constraint_5  94
    x_3       Constraint_6  19
    x_3       Constraint_7  85
    x_3       Constraint_8  86
    x_3       Constraint_9  55
    x_4       OBJ       7.0466110309723975e+00
    x_4       Constraint_0  70
    x_4       Constraint_1  85
    x_4       Constraint_2  22
    x_4       Constraint_3  81
    x_4       Constraint_4  88
    x_4       Constraint_5  33
    x_4       Constraint_6  84
    x_4       Constraint_7  79
    x_4       Constraint_8  89
    x_4       Constraint_9  84
    x_5       OBJ       1.0653038474494831e+00
    x_5       Constraint_0  79
    x_5       Constraint_1  11
    x_5       Constraint_2  68
    x_5       Constraint_3  14
    x_5       Constraint_4  61
    x_5       Constraint_5  24
    x_5       Constraint_6  83
    x_5       Constraint_7  93
    x_5       Constraint_8  95
    x_5       Constraint_9  52
    x_6       OBJ       5.4275251361015595e+00
    x_6       Constraint_0  83
    x_6       Constraint_1  41
    x_6       Constraint_2  60
    x_6       Constraint_3  34
    x_6       Constraint_4  43
    x_6       Constraint_5  57
    x_6       Constraint_6  6
    x_6       Constraint_7  49
    x_6       Constraint_8  64
    x_6       Constraint_9  40
    x_7       OBJ       4.6279215325889318e+00
    x_7       Constraint_0  82
    x_7       Constraint_1  61
    x_7       Constraint_2  78
    x_7       Constraint_3  81
    x_7       Constraint_4  56
    x_7       Constraint_5  10
    x_7       Constraint_6  31
    x_7       Constraint_7  10
    x_7       Constraint_8  82
    x_7       Constraint_9  1
    x_8       OBJ       1.4129228087762957e+00
    x_8       Constraint_0  5
    x_8       Constraint_1  23
    x_8       Constraint_2  85
    x_8       Constraint_3  38
    x_8       Constraint_4  34
    x_8       Constraint_5  89
    x_8       Constraint_6  83
    x_8       Constraint_7  3
    x_8       Constraint_8  33
    x_8       Constraint_9  65
    x_9       OBJ       1.8944204476959734e+00
    x_9       Constraint_0  37
    x_9       Constraint_1  60
    x_9       Constraint_2  40
    x_9       Constraint_3  81
    x_9       Constraint_4  61
    x_9       Constraint_5  69
    x_9       Constraint_6  49
    x_9       Constraint_7  12
    x_9       Constraint_8  18
    x_9       Constraint_9  60
    x_10      OBJ       1.2222889928763090e+00
    x_10      Constraint_0  41
    x_10      Constraint_1  30
    x_10      Constraint_2  15
    x_10      Constraint_3  29
    x_10      Constraint_4  63
    x_10      Constraint_5  58
    x_10      Constraint_6  38
    x_10      Constraint_7  53
    x_10      Constraint_8  95
    x_10      Constraint_9  30
    x_11      OBJ       3.4339536465495524e+00
    x_11      Constraint_0  53
    x_11      Constraint_1  10
    x_11      Constraint_2  27
    x_11      Constraint_3  99
    x_11      Constraint_4  26
    x_11      Constraint_5  95
    x_11      Constraint_6  72
    x_11      Constraint_7  59
    x_11      Constraint_8  17
    x_11      Constraint_9  58
    x_12      OBJ       8.4905570320668780e+00
    x_12      Constraint_0  88
    x_12      Constraint_1  1
    x_12      Constraint_2  66
    x_12      Constraint_3  59
    x_12      Constraint_4  47
    x_12      Constraint_5  55
    x_12      Constraint_6  21
    x_12      Constraint_7  27
    x_12      Constraint_8  37
    x_12      Constraint_9  92
    x_13      OBJ       2.5664704046333862e+00
    x_13      Constraint_0  41
    x_13      Constraint_1  59
    x_13      Constraint_2  57
    x_13      Constraint_3  1
    x_13      Constraint_4  32
    x_13      Constraint_5  65
    x_13      Constraint_6  8
    x_13      Constraint_7  14
    x_13      Constraint_8  88
    x_13      Constraint_9  85
    x_14      OBJ       6.8099991785389706e+00
    x_14      Constraint_0  10
    x_14      Constraint_1  40
    x_14      Constraint_2  54
    x_14      Constraint_3  89
    x_14      Constraint_4  15
    x_14      Constraint_5  74
    x_14      Constraint_6  42
    x_14      Constraint_7  6
    x_14      Constraint_8  71
    x_14      Constraint_9  1
    x_15      OBJ       3.3061915948022427e+00
    x_15      Constraint_0  48
    x_15      Constraint_1  12
    x_15      Constraint_2  31
    x_15      Constraint_3  92
    x_15      Constraint_4  23
    x_15      Constraint_5  48
    x_15      Constraint_6  82
    x_15      Constraint_7  25
    x_15      Constraint_8  27
    x_15      Constraint_9  54
    x_16      OBJ       2.42313672290883
    x_16      Constraint_0  13
    x_16      Constraint_1  24
    x_16      Constraint_2  14
    x_16      Constraint_3  86
    x_16      Constraint_4  12
    x_16      Constraint_5  55
    x_16      Constraint_6  5
    x_16      Constraint_7  51
    x_16      Constraint_8  10
    x_16      Constraint_9  9
    x_17      OBJ       3.2606996976560332e+00
    x_17      Constraint_0  80
    x_17      Constraint_1  81
    x_17      Constraint_2  6
    x_17      Constraint_3  51
    x_17      Constraint_4  43
    x_17      Constraint_5  18
    x_17      Constraint_6  8
    x_17      Constraint_7  28
    x_17      Constraint_8  37
    x_17      Constraint_9  33
    x_18      OBJ       1.7808673198902905e+00
    x_18      Constraint_0  29
    x_18      Constraint_1  43
    x_18      Constraint_2  73
    x_18      Constraint_3  44
    x_18      Constraint_4  50
    x_18      Constraint_5  77
    x_18      Constraint_6  100
    x_18      Constraint_7  40
    x_18      Constraint_8  73
    x_18      Constraint_9  71
    x_19      OBJ       7.9849174588843539e+00
    x_19      Constraint_0  18
    x_19      Constraint_1  94
    x_19      Constraint_2  48
    x_19      Constraint_3  100
    x_19      Constraint_4  26
    x_19      Constraint_5  49
    x_19      Constraint_6  13
    x_19      Constraint_7  45
    x_19      Constraint_8  45
    x_19      Constraint_9  3
    x_20      OBJ       3.1826768140527215e+00
    x_20      Constraint_0  36
    x_20      Constraint_1  1
    x_20      Constraint_2  74
    x_20      Constraint_3  84
    x_20      Constraint_4  32
    x_20      Constraint_5  15
    x_20      Constraint_6  16
    x_20      Constraint_7  58
    x_20      Constraint_8  62
    x_20      Constraint_9  39
    x_21      OBJ       4.8441214868585263e+00
    x_21      Constraint_0  65
    x_21      Constraint_1  43
    x_21      Constraint_2  89
    x_21      Constraint_3  31
    x_21      Constraint_4  40
    x_21      Constraint_5  45
    x_21      Constraint_6  89
    x_21      Constraint_7  25
    x_21      Constraint_8  68
    x_21      Constraint_9  19
    x_22      OBJ       8.8528711917723477e+00
    x_22      Constraint_0  72
    x_22      Constraint_1  71
    x_22      Constraint_2  89
    x_22      Constraint_3  11
    x_22      Constraint_4  97
    x_22      Constraint_5  54
    x_22      Constraint_6  32
    x_22      Constraint_7  56
    x_22      Constraint_8  62
    x_22      Constraint_9  23
    x_23      OBJ       6.6305282696722134e+00
    x_23      Constraint_0  56
    x_23      Constraint_1  99
    x_23      Constraint_2  37
    x_23      Constraint_3  74
    x_23      Constraint_4  64
    x_23      Constraint_5  67
    x_23      Constraint_6  91
    x_23      Constraint_7  77
    x_23      Constraint_8  7
    x_23      Constraint_9  1
    x_24      OBJ       2.2095301546771982e+00
    x_24      Constraint_0  51
    x_24      Constraint_1  17
    x_24      Constraint_2  89
    x_24      Constraint_3  86
    x_24      Constraint_4  76
    x_24      Constraint_5  11
    x_24      Constraint_6  64
    x_24      Constraint_7  69
    x_24      Constraint_8  40
    x_24      Constraint_9  14
RHS
    RHS1      Constraint_0  71
    RHS1      Constraint_1  14
    RHS1      Constraint_2  12
    RHS1      Constraint_3  71
    RHS1      Constraint_4  58
    RHS1      Constraint_5  57
    RHS1      Constraint_6  82
    RHS1      Constraint_7  25
    RHS1      Constraint_8  46
    RHS1      Constraint_9  78
BOUNDS
ENDATA
